493780
483225
483225
472719
472719
472719
472719
457343
457343
457343
457343
454972
454972
453262
453262
453262
453262
436546
436546
436546
431758
431758
430589
430589
430589
428244
428244
428244
428085
422157
422157
412973
408675
408675
408675
407653
407653
404700
402007
394648
394648
394648
394648
393696
393696
393696
393696
393696
393696
393696
388192
388192
380500
380500
380500
380488
380488
380264
380264
380264
375778
375778
375778
375778
367930
367930
367930
367930
367930
367930
367930
367930
367930
367930
362541
362541
362541
362541
362541
362541
360080
360080
360080
360080
360080
360080
359328
355810
355810
355810
348156
348156
348156
348156
348156
344073
344073
344073
344073
344073
